param set_len = 10;
param target_sum = 1728236207;
param values := [1] 99647266 [2] 174558172 [3] 467426215 [4] 487596805 [5] 811823536 [6] 214460923 [7] 419825135 [8] 154610428 [9] 369148958 [10] 988537673 ;
